
 102    0


   0  38 2 3 4 5 6 7 8 9 10 11 12 13 14 16 17 18 19 20 21 22 23 24 26 27 28 29 30 31 32 33 37 38 39 40 47 48 49 50 
   2  15 96 92 90 89 86 83 79 77 73 71 70 54 43 35 15 
   7  20 97 93 91 89 88 86 83 79 78 75 73 69 68 66 64 54 52 51 45 42 
   2  21 100 96 95 91 89 84 82 79 76 75 74 73 71 70 69 68 66 65 64 52 36 
   6  20 99 96 95 92 91 90 88 87 79 75 74 72 71 70 68 67 66 65 52 51 
   4  14 93 92 87 86 82 77 76 72 68 67 55 54 52 25 
   5  17 98 97 92 86 83 78 77 74 73 70 68 67 66 64 62 52 35 
   7  14 101 90 87 85 84 77 76 71 70 66 59 46 42 41 
   4  16 96 94 93 91 78 76 75 73 72 69 67 66 65 63 51 41 
   7  14 96 94 92 90 78 77 75 73 72 69 64 63 53 34 
   3  12 94 93 89 80 79 78 77 76 74 72 66 25 
   3  12 89 78 77 71 68 67 65 64 61 52 42 34 
   9  14 96 93 92 81 77 75 73 71 69 67 65 64 62 35 
   6  15 98 92 91 87 85 84 77 75 74 73 72 71 68 64 53 
   5  13 97 94 93 91 88 78 69 67 66 65 55 52 51 
   9  13 98 93 92 88 87 85 84 79 72 70 66 56 44 
   2  14 99 92 90 88 87 79 76 72 70 68 65 64 62 52 
   4  12 88 86 83 77 76 71 70 68 66 63 57 51 
   1  10 89 85 79 77 74 73 66 62 53 52 
   6  10 97 89 76 74 72 71 65 62 60 52 
   9   9 89 84 72 70 69 66 65 58 51 
   5   9 82 81 72 69 68 67 65 63 51 
   4   7 96 78 75 74 70 65 63 
   9   5 89 75 72 70 41 
   5   5 73 70 69 63 51 
   9   5 89 71 67 64 51 
   6   5 71 68 65 64 51 
   5   5 76 75 74 67 66 
   4   5 95 80 73 68 63 
   8   5 90 76 71 69 64 
   8   4 95 85 66 51 
   4   4 90 74 65 64 
   9   4 88 76 63 62 
   8   3 79 66 51 
  10   3 91 88 87 
   7   3 78 63 62 
   3   3 93 64 63 
   8   3 71 65 63 
   7   3 71 70 68 
   8   3 73 69 66 
   4   2 74 64 
   7   2 95 63 
   8   2 72 68 
   8   2 67 62 
   8   2 67 65 
   8   2 69 63 
   3   2 69 68 
   3   2 70 69 
  10   2 90 85 
   8   2 87 75 
   9   1 62 
   4   1 63 
   8   1 67 
   6   1 94 
   7   1 64 
   6   1 75 
   3   1 65 
   1   1 90 
   5   1 86 
   7   1 68 
   8   1 62 
   9   1 102
   8   1 102
   4   1 102
  10   1 102
   4   1 102
   9   1 102
   8   1 102
   4   1 102
   8   1 102
   7   1 102
  10   1 102
   2   1 102
   1   1 102
   3   1 102
   2   1 102
   8   1 102
   2   1 102
  10   1 102
   9   1 102
   8   1 102
   5   1 102
   6   1 102
   9   1 102
   7   1 102
   1   1 102
  10   1 102
   3   1 102
   4   1 102
   5   1 102
   8   1 102
   2   1 102
   6   1 102
   6   1 102
   7   1 102
   8   1 102
  10   1 102
   9   1 102
   5   1 102
   6   1 102
   4   1 102
   0   0 
